5 5
1 31 4 69 2 88 0 33 3 72
2 88 4 50 3 84 1 16 0 76
3 77 0 39 4 89 2 46 1 96
0 88 1 47 4 44 2 9 3 87
3 50 2 77 0 60 4 96 1 15
-1
0 1 5
0 2 5
0 2 5
0 3 5
0 2 4 5
-2
40 436
167 381
175 449
215 284
182 438 460

436 4
15 11 3 22 9
0 16 8 14 24
5 2 21 13 18
10 20 7 4 19
1 6 12 17 23
